36 36
23
12 36 0 0
3 36 12 0
4 22 15 14
5 15 19 14
3 24 24 0
5 14 15 0
3 16 27 0
3 15 27 16
4 11 20 0
3 14 30 0
3 12 24 24
3 11 30 14
3 10 33 0
3 9 33 10
3 8 30 25
3 7 33 19
5 4 19 29
3 6 33 26
5 3 19 33
3 5 27 31
4 3 20 11
3 4 33 32
3 3 30 33
